32 32
27
3 3 0 0
3 4 7 15
3 5 20 27
3 6 0 15
3 7 10 25
3 8 23 24
3 9 29 23
3 10 17 0
3 11 0 21
3 12 0 3
3 13 7 19
3 14 26 18
3 15 7 0
3 18 26 0
3 22 17 10
3 23 29 0
3 24 23 0
3 25 10 0
3 27 20 0
4 3 3 29
4 4 13 28
4 5 3 6
4 6 3 0
4 7 13 0
4 10 13 18
4 11 13 7
4 18 3 11
